50
71.9 6.0
43.0 71.0
48.7 36.0
0.7 10.8
78.1 96.2
59.1 15.2
28.7 89.8
49.0 62.0
68.3 91.8
91.3 54.9
38.2 5.3
72.8 68.4
23.0 7.8
47.7 43.8
16.2 19.9
85.3 17.5
67.5 13.1
70.2 63.4
10.0 36.0
63.6 65.3
12.5 61.3
76.8 33.1
77.2 32.9
4.6 84.6
55.4 58.6
64.8 4.3
9.5 30.3
73.3 54.7
41.9 46.6
39.7 97.8
77.0 72.7
57.0 57.5
85.1 34.2
85.9 89.0
94.9 43.9
95.9 83.7
32.0 86.5
50.5 48.3
75.0 85.3
5.5 30.1
71.7 33.4
17.7 96.6
90.9 68.5
76.4 97.5
27.2 22.7
10.8 35.3
97.5 66.0
64.0 62.0
92.3 76.6
1.3 74.5
